decision_x1=[0,7];
decision_x2=[0,7];
decision_x3=[0,7];
decision_x4=[0,7];
decision_x5=[0,7];
decision_x6=[0,7];
decision_x7=[0,7];
decision_x8=[0,7];
decision_x9=[0,7];
decision_x10=[0,7];
decision_x11=[0,7];
decision_x12=[0,7];
decision_x13=[0,7];
decision_x14=[0,7];
random_y1=[0,7];
random_y2=[0,7];
random_y3=[0,7];
random_y4=[0,7];
random_y5=[0,7];
random_y6=[0,7];
constraint_x2_x1=[
0,0,6|
0,1,0.4|
0,2,3.5|
0,3,8.7|
0,4,0.46|
0,5,6.3|
0,6,7.7|
0,7,4.5|
1,0,0.52|
1,1,6.1|
1,2,3.2|
1,3,9.3|
1,4,6.4|
1,5,7|
1,6,8.2|
1,7,7.2|
2,0,8.3|
2,1,4.5|
2,2,2.9|
2,3,8.2|
2,4,2.2|
2,5,3.4|
2,6,7.6|
2,7,0.7|
3,0,1.5|
3,1,1.2|
3,2,3.5|
3,3,1.3|
3,4,5.1|
3,5,6.3|
3,6,9.6|
3,7,7|
4,0,6.9|
4,1,5.4|
4,2,9.9|
4,3,8.1|
4,4,2.3|
4,5,3.5|
4,6,8.5|
4,7,7.1|
5,0,8.1|
5,1,1.9|
5,2,0.51|
5,3,7.6|
5,4,3.9|
5,5,3.8|
5,6,4.3|
5,7,4.8|
6,0,6.2|
6,1,4.6|
6,2,0.87|
6,3,1.3|
6,4,7.6|
6,5,4.3|
6,6,8.6|
6,7,3.5|
7,0,8.4|
7,1,1.4|
7,2,8.5|
7,3,9.7|
7,4,1.3|
7,5,0.68|
7,6,2.9|
7,7,8.9|
];
constraint_x3_x2=[
0,0,1.7|
0,1,0.77|
0,2,1.2|
0,3,9.5|
0,4,7.8|
0,5,8|
0,6,9.9|
0,7,7.5|
1,0,7.1|
1,1,0.29|
1,2,2|
1,3,3.6|
1,4,4.9|
1,5,0.24|
1,6,9.2|
1,7,0.23|
2,0,5.4|
2,1,7.2|
2,2,9.8|
2,3,8.4|
2,4,6.4|
2,5,1.1|
2,6,7.2|
2,7,7|
3,0,4.3|
3,1,8.3|
3,2,0.88|
3,3,0.32|
3,4,10|
3,5,7.3|
3,6,9.9|
3,7,0.85|
4,0,0.038|
4,1,5.2|
4,2,9.5|
4,3,3.4|
4,4,6.1|
4,5,0.11|
4,6,0.71|
4,7,6.6|
5,0,7.8|
5,1,3.6|
5,2,3.9|
5,3,8.2|
5,4,5.3|
5,5,8.3|
5,6,5.7|
5,7,2.3|
6,0,0.42|
6,1,3.3|
6,2,1.1|
6,3,1.4|
6,4,7.8|
6,5,7.2|
6,6,6.7|
6,7,7.2|
7,0,2.5|
7,1,4.2|
7,2,7.7|
7,3,5.4|
7,4,9.6|
7,5,5.1|
7,6,0.6|
7,7,5|
];
constraint_x4_x3=[
0,0,4.1|
0,1,7.9|
0,2,1.6|
0,3,8.4|
0,4,0.38|
0,5,0.33|
0,6,2|
0,7,7.8|
1,0,8.8|
1,1,8.3|
1,2,3|
1,3,8.7|
1,4,6.4|
1,5,0.014|
1,6,8.2|
1,7,4.1|
2,0,9.5|
2,1,7.9|
2,2,5.9|
2,3,4.9|
2,4,2.6|
2,5,8.6|
2,6,0.8|
2,7,5.6|
3,0,7.9|
3,1,0.25|
3,2,2.5|
3,3,3.9|
3,4,10|
3,5,2.4|
3,6,9.3|
3,7,5.1|
4,0,8.5|
4,1,7.3|
4,2,7.8|
4,3,5.8|
4,4,5|
4,5,8.3|
4,6,6.2|
4,7,3.9|
5,0,2.3|
5,1,8.6|
5,2,4.3|
5,3,6.4|
5,4,8|
5,5,6.2|
5,6,0.61|
5,7,8|
6,0,9.8|
6,1,8.8|
6,2,1.9|
6,3,0.78|
6,4,7.4|
6,5,0.083|
6,6,7.7|
6,7,7|
7,0,6.7|
7,1,1.1|
7,2,0.71|
7,3,1.3|
7,4,2.8|
7,5,9|
7,6,7.4|
7,7,1.6|
];
constraint_x5_x1=[
0,0,5.2|
0,1,6.5|
0,2,7.4|
0,3,4.1|
0,4,4.5|
0,5,9|
0,6,0.33|
0,7,4.5|
1,0,9.8|
1,1,6.6|
1,2,8.6|
1,3,3.9|
1,4,9.9|
1,5,4.4|
1,6,0.36|
1,7,5.3|
2,0,4|
2,1,4.7|
2,2,8.3|
2,3,1.4|
2,4,2|
2,5,9.1|
2,6,0.18|
2,7,9.5|
3,0,1.1|
3,1,2.9|
3,2,0.7|
3,3,3.3|
3,4,2.3|
3,5,5.8|
3,6,0.28|
3,7,8.1|
4,0,8.6|
4,1,0.27|
4,2,5.4|
4,3,7.1|
4,4,2|
4,5,4.2|
4,6,6.9|
4,7,9.2|
5,0,6|
5,1,5.8|
5,2,3.7|
5,3,1.2|
5,4,2.2|
5,5,0.59|
5,6,6.8|
5,7,8.6|
6,0,3|
6,1,6.2|
6,2,1|
6,3,4.4|
6,4,2.2|
6,5,6.9|
6,6,5.2|
6,7,1|
7,0,7|
7,1,0.94|
7,2,0.61|
7,3,4.2|
7,4,7.7|
7,5,6.4|
7,6,2|
7,7,3.6|
];
constraint_x6_x2=[
0,0,9.6|
0,1,3.6|
0,2,0.56|
0,3,2.5|
0,4,1.1|
0,5,9.8|
0,6,0.41|
0,7,1.5|
1,0,7.1|
1,1,6.4|
1,2,6.3|
1,3,2.1|
1,4,1.5|
1,5,7.6|
1,6,9.9|
1,7,4.1|
2,0,8.8|
2,1,8.8|
2,2,1.6|
2,3,3.2|
2,4,8.6|
2,5,3.1|
2,6,0.43|
2,7,9.9|
3,0,1.5|
3,1,9|
3,2,7.4|
3,3,4.5|
3,4,5.7|
3,5,6.5|
3,6,6|
3,7,7.6|
4,0,6.3|
4,1,7.4|
4,2,7.6|
4,3,8|
4,4,8.9|
4,5,10|
4,6,8|
4,7,9.3|
5,0,7.2|
5,1,8.5|
5,2,8.7|
5,3,6.6|
5,4,6.6|
5,5,2.9|
5,6,9.5|
5,7,9.6|
6,0,4.6|
6,1,4.6|
6,2,6.5|
6,3,3.2|
6,4,5.4|
6,5,6.1|
6,6,9.1|
6,7,8|
7,0,3.5|
7,1,2.2|
7,2,6.6|
7,3,9.6|
7,4,8.9|
7,5,8.9|
7,6,5.4|
7,7,2.8|
];
constraint_x6_x5=[
0,0,2|
0,1,5|
0,2,6.6|
0,3,4.4|
0,4,2.4|
0,5,7.4|
0,6,9.5|
0,7,3.8|
1,0,9.2|
1,1,0.79|
1,2,6.7|
1,3,9.7|
1,4,3.8|
1,5,6.8|
1,6,8.5|
1,7,2.9|
2,0,5|
2,1,7|
2,2,1.7|
2,3,7.7|
2,4,7.8|
2,5,6.1|
2,6,7.1|
2,7,5.1|
3,0,2.4|
3,1,5.5|
3,2,1.1|
3,3,3|
3,4,9.8|
3,5,0.92|
3,6,5.6|
3,7,6|
4,0,0.49|
4,1,2.5|
4,2,9.7|
4,3,8.5|
4,4,0.097|
4,5,3.1|
4,6,3.8|
4,7,1.9|
5,0,9.5|
5,1,7.7|
5,2,0.23|
5,3,2.9|
5,4,8.2|
5,5,6.7|
5,6,9.5|
5,7,2.9|
6,0,3|
6,1,9|
6,2,2.9|
6,3,6.1|
6,4,6|
6,5,0.2|
6,6,7.6|
6,7,8.5|
7,0,5.4|
7,1,1.4|
7,2,9.1|
7,3,9.2|
7,4,3.7|
7,5,1.9|
7,6,6.7|
7,7,7.7|
];
constraint_x7_x3=[
0,0,6.9|
0,1,6|
0,2,2.6|
0,3,6.5|
0,4,4.6|
0,5,5.7|
0,6,4.8|
0,7,7.4|
1,0,2.2|
1,1,7.1|
1,2,3.4|
1,3,3.5|
1,4,2.4|
1,5,6.4|
1,6,3.6|
1,7,8.5|
2,0,6.6|
2,1,9|
2,2,9.2|
2,3,9.8|
2,4,3.9|
2,5,7.4|
2,6,0.83|
2,7,7.1|
3,0,8.9|
3,1,1|
3,2,3.6|
3,3,4.2|
3,4,1.3|
3,5,5|
3,6,2.3|
3,7,4.4|
4,0,6.5|
4,1,2.3|
4,2,1.5|
4,3,1.9|
4,4,6.2|
4,5,5.7|
4,6,2.3|
4,7,7.3|
5,0,8.6|
5,1,8.8|
5,2,2.1|
5,3,3.6|
5,4,5.2|
5,5,8.2|
5,6,10|
5,7,0.36|
6,0,2|
6,1,6.6|
6,2,5.4|
6,3,5.3|
6,4,7.1|
6,5,6.5|
6,6,4|
6,7,6.5|
7,0,1.8|
7,1,6|
7,2,5.6|
7,3,4.9|
7,4,1.3|
7,5,9.7|
7,6,8.1|
7,7,4.4|
];
constraint_x7_x6=[
0,0,3|
0,1,5.5|
0,2,9.8|
0,3,2.7|
0,4,3.5|
0,5,1.8|
0,6,7.7|
0,7,2|
1,0,4.9|
1,1,1.8|
1,2,6.5|
1,3,2.5|
1,4,1.8|
1,5,4.3|
1,6,1.8|
1,7,3.4|
2,0,0.62|
2,1,5.4|
2,2,2.4|
2,3,0.73|
2,4,5.2|
2,5,9.4|
2,6,0.033|
2,7,6.3|
3,0,1.9|
3,1,6.2|
3,2,1.5|
3,3,3.2|
3,4,7.2|
3,5,4.5|
3,6,7.2|
3,7,1.4|
4,0,5.3|
4,1,6.9|
4,2,5.1|
4,3,5.3|
4,4,6|
4,5,7.6|
4,6,1.8|
4,7,4.4|
5,0,9.3|
5,1,9.3|
5,2,2.6|
5,3,7|
5,4,2.1|
5,5,5|
5,6,2.5|
5,7,5.9|
6,0,2.2|
6,1,9.2|
6,2,6.7|
6,3,7.4|
6,4,6.4|
6,5,9.6|
6,6,0.23|
6,7,5.8|
7,0,9.9|
7,1,7|
7,2,9.2|
7,3,0.72|
7,4,6.8|
7,5,4.6|
7,6,1.5|
7,7,1.6|
];
constraint_x8_x4=[
0,0,3.2|
0,1,8.3|
0,2,2.5|
0,3,9.7|
0,4,6.1|
0,5,3.7|
0,6,2.8|
0,7,8.8|
1,0,4|
1,1,1.5|
1,2,3.6|
1,3,3.5|
1,4,8.4|
1,5,4.1|
1,6,3.4|
1,7,7.7|
2,0,8.7|
2,1,4.2|
2,2,0.78|
2,3,7.3|
2,4,4.1|
2,5,3.3|
2,6,0.94|
2,7,8.4|
3,0,6.6|
3,1,1.2|
3,2,6.5|
3,3,2.1|
3,4,6.4|
3,5,1.9|
3,6,1.1|
3,7,8|
4,0,4.8|
4,1,2.2|
4,2,9|
4,3,5.5|
4,4,3.4|
4,5,8.4|
4,6,2.7|
4,7,5.5|
5,0,6.9|
5,1,7|
5,2,6.5|
5,3,9.8|
5,4,8.2|
5,5,1.1|
5,6,8.8|
5,7,8.5|
6,0,9.6|
6,1,2.2|
6,2,1.1|
6,3,2.6|
6,4,9.8|
6,5,7.2|
6,6,7.2|
6,7,1.8|
7,0,6.4|
7,1,1.7|
7,2,10|
7,3,3.1|
7,4,2|
7,5,8.3|
7,6,9.7|
7,7,2.3|
];
constraint_x8_x7=[
0,0,0.27|
0,1,4.3|
0,2,4.2|
0,3,4.8|
0,4,4.6|
0,5,3.2|
0,6,9.6|
0,7,0.2|
1,0,3.6|
1,1,8.2|
1,2,5.2|
1,3,8|
1,4,0.95|
1,5,4.6|
1,6,3|
1,7,8.2|
2,0,8.6|
2,1,7.8|
2,2,4.5|
2,3,3.1|
2,4,7.6|
2,5,7.3|
2,6,7|
2,7,7.9|
3,0,1.9|
3,1,7.7|
3,2,2.2|
3,3,8|
3,4,5.1|
3,5,6|
3,6,6.2|
3,7,1.2|
4,0,9.3|
4,1,6.6|
4,2,0.46|
4,3,2.4|
4,4,7.9|
4,5,7|
4,6,4.9|
4,7,6.6|
5,0,0.2|
5,1,2.7|
5,2,4.9|
5,3,6.6|
5,4,3.7|
5,5,1.3|
5,6,0.058|
5,7,9.2|
6,0,4|
6,1,1.8|
6,2,0.17|
6,3,8.8|
6,4,8.4|
6,5,2.4|
6,6,7|
6,7,4.4|
7,0,4.1|
7,1,2.7|
7,2,0.78|
7,3,0.5|
7,4,2.6|
7,5,3.6|
7,6,3.7|
7,7,7.3|
];
constraint_x9_x5=[
0,0,7.7|
0,1,0.93|
0,2,6.6|
0,3,7.3|
0,4,6.8|
0,5,0.87|
0,6,8.5|
0,7,6.9|
1,0,1.8|
1,1,9|
1,2,2.2|
1,3,8.3|
1,4,1.1|
1,5,4.7|
1,6,7.5|
1,7,1.8|
2,0,6.7|
2,1,4.7|
2,2,8.9|
2,3,6.8|
2,4,1.3|
2,5,7.8|
2,6,9.3|
2,7,5.3|
3,0,10|
3,1,5.1|
3,2,3.4|
3,3,6.6|
3,4,8|
3,5,5.2|
3,6,6.7|
3,7,3.4|
4,0,6|
4,1,9.3|
4,2,0.18|
4,3,0.23|
4,4,3.2|
4,5,1.8|
4,6,7.8|
4,7,1.9|
5,0,5.3|
5,1,5|
5,2,1.6|
5,3,5|
5,4,9.8|
5,5,2|
5,6,4.5|
5,7,3|
6,0,5.2|
6,1,9.6|
6,2,4.7|
6,3,3.1|
6,4,2.9|
6,5,8|
6,6,3.3|
6,7,4.1|
7,0,5.3|
7,1,7.6|
7,2,3.8|
7,3,8|
7,4,8|
7,5,9.8|
7,6,2.4|
7,7,2.3|
];
constraint_x10_x6=[
0,0,5|
0,1,4.3|
0,2,6.6|
0,3,3.7|
0,4,7.8|
0,5,6.6|
0,6,8.9|
0,7,2.8|
1,0,2.6|
1,1,0.75|
1,2,7.5|
1,3,9.7|
1,4,2|
1,5,5.3|
1,6,9.5|
1,7,5.7|
2,0,9.7|
2,1,2.3|
2,2,3.2|
2,3,0.99|
2,4,1.6|
2,5,0.91|
2,6,6.4|
2,7,5.4|
3,0,8.6|
3,1,0.4|
3,2,4.7|
3,3,2.5|
3,4,4.8|
3,5,2.8|
3,6,1.5|
3,7,6.4|
4,0,6.3|
4,1,1.7|
4,2,7.1|
4,3,3.2|
4,4,1.3|
4,5,7.9|
4,6,7|
4,7,7.9|
5,0,1.8|
5,1,4.3|
5,2,7.2|
5,3,3.4|
5,4,9.1|
5,5,9.4|
5,6,1.2|
5,7,2.1|
6,0,1.9|
6,1,8.5|
6,2,6.5|
6,3,9.7|
6,4,5.3|
6,5,8.6|
6,6,6.7|
6,7,0.3|
7,0,9.5|
7,1,9.4|
7,2,3.8|
7,3,9.3|
7,4,0.089|
7,5,7.8|
7,6,5.7|
7,7,5|
];
constraint_x11_x7=[
0,0,6.9|
0,1,5.8|
0,2,9.4|
0,3,4.3|
0,4,4|
0,5,1.1|
0,6,7.2|
0,7,6.2|
1,0,9.5|
1,1,8.5|
1,2,5|
1,3,4.5|
1,4,2.3|
1,5,0.14|
1,6,1.3|
1,7,10|
2,0,8.6|
2,1,7.4|
2,2,4.7|
2,3,0.54|
2,4,5.9|
2,5,6.9|
2,6,8.9|
2,7,6.8|
3,0,9.5|
3,1,4.4|
3,2,2|
3,3,1.6|
3,4,9.6|
3,5,4.7|
3,6,8.8|
3,7,0.84|
4,0,9.7|
4,1,0.87|
4,2,7.2|
4,3,2.4|
4,4,4.4|
4,5,6|
4,6,3.6|
4,7,0.014|
5,0,2.8|
5,1,0.45|
5,2,6.6|
5,3,9.6|
5,4,6.2|
5,5,0.97|
5,6,6.5|
5,7,0.86|
6,0,3.3|
6,1,9|
6,2,4.5|
6,3,4.6|
6,4,5|
6,5,1.1|
6,6,4.3|
6,7,9.5|
7,0,8.3|
7,1,1.4|
7,2,1.9|
7,3,9|
7,4,2.9|
7,5,3.4|
7,6,7.6|
7,7,0.16|
];
constraint_x12_x8=[
0,0,5.8|
0,1,0.9|
0,2,2.2|
0,3,6.6|
0,4,8.4|
0,5,4|
0,6,5.7|
0,7,0.16|
1,0,8.1|
1,1,0.52|
1,2,4.4|
1,3,7.3|
1,4,5.7|
1,5,1.9|
1,6,3.7|
1,7,6.4|
2,0,4.7|
2,1,2|
2,2,4.8|
2,3,6.7|
2,4,2.6|
2,5,9.7|
2,6,5.6|
2,7,8.3|
3,0,3.7|
3,1,9.9|
3,2,7.3|
3,3,2.4|
3,4,5.3|
3,5,7.9|
3,6,8.1|
3,7,6.1|
4,0,4.3|
4,1,8|
4,2,3.7|
4,3,6.9|
4,4,4.9|
4,5,7.5|
4,6,7.1|
4,7,2.2|
5,0,4|
5,1,6.4|
5,2,3|
5,3,7.2|
5,4,5.4|
5,5,2.6|
5,6,9.4|
5,7,5.5|
6,0,3.6|
6,1,4.1|
6,2,3.7|
6,3,7.2|
6,4,3.2|
6,5,3|
6,6,3.6|
6,7,6|
7,0,2|
7,1,6.6|
7,2,6|
7,3,7.4|
7,4,4.2|
7,5,4.1|
7,6,9.6|
7,7,2.2|
];
constraint_x13_x9=[
0,0,8.6|
0,1,4.9|
0,2,6.7|
0,3,2.8|
0,4,5|
0,5,1.5|
0,6,4.6|
0,7,6.6|
1,0,8.6|
1,1,5.1|
1,2,1.3|
1,3,5.8|
1,4,4.2|
1,5,7.1|
1,6,9.1|
1,7,7|
2,0,5.7|
2,1,4.5|
2,2,0.35|
2,3,9.5|
2,4,1.2|
2,5,1.5|
2,6,3.6|
2,7,9.1|
3,0,9.8|
3,1,3.3|
3,2,7.5|
3,3,2.4|
3,4,8.1|
3,5,6.6|
3,6,5.1|
3,7,5.3|
4,0,4.4|
4,1,0.8|
4,2,7.3|
4,3,3.3|
4,4,3.2|
4,5,5.5|
4,6,6.4|
4,7,2.5|
5,0,8.8|
5,1,9.4|
5,2,9.8|
5,3,0.76|
5,4,7.7|
5,5,5|
5,6,7.3|
5,7,7.4|
6,0,1.1|
6,1,7|
6,2,7.6|
6,3,8.9|
6,4,4.4|
6,5,5.6|
6,6,0.61|
6,7,7.3|
7,0,4.1|
7,1,8.1|
7,2,3|
7,3,0.77|
7,4,6.2|
7,5,6.7|
7,6,2.5|
7,7,6|
];
constraint_x14_x10=[
0,0,5.4|
0,1,7.3|
0,2,8.1|
0,3,5.3|
0,4,7.8|
0,5,9.2|
0,6,3.3|
0,7,3.2|
1,0,1.5|
1,1,2|
1,2,5.3|
1,3,9.1|
1,4,3.4|
1,5,3.5|
1,6,5.2|
1,7,2.8|
2,0,8.9|
2,1,8.9|
2,2,4.2|
2,3,4.5|
2,4,8.9|
2,5,3.8|
2,6,7.4|
2,7,4.9|
3,0,8.2|
3,1,7.4|
3,2,1.8|
3,3,7.3|
3,4,2.3|
3,5,3.3|
3,6,0.92|
3,7,7.9|
4,0,2.8|
4,1,0.94|
4,2,6.8|
4,3,4.1|
4,4,8.7|
4,5,0.4|
4,6,7|
4,7,8.3|
5,0,8.6|
5,1,4.5|
5,2,5.3|
5,3,8.6|
5,4,9.3|
5,5,7.9|
5,6,2.7|
5,7,3.5|
6,0,7|
6,1,2.7|
6,2,2.5|
6,3,4.1|
6,4,7.7|
6,5,0.92|
6,6,4.8|
6,7,5.3|
7,0,3.7|
7,1,8.4|
7,2,3.2|
7,3,6.8|
7,4,4.9|
7,5,4.1|
7,6,1.4|
7,7,1.9|
];
constraint_x1_y1=[
0,0,9.5|
0,1,5.7|
0,2,4.2|
0,3,3.2|
0,4,3.3|
0,5,6.9|
0,6,7.9|
0,7,2.4|
1,0,2.7|
1,1,1.9|
1,2,3.4|
1,3,7.1|
1,4,3.2|
1,5,6.4|
1,6,8.9|
1,7,7.2|
2,0,3.7|
2,1,5.3|
2,2,3.8|
2,3,7.7|
2,4,9.3|
2,5,4.5|
2,6,4.2|
2,7,0.083|
3,0,9.9|
3,1,3.1|
3,2,5.5|
3,3,9.1|
3,4,1.9|
3,5,3.3|
3,6,6.1|
3,7,1.5|
4,0,0.74|
4,1,4.6|
4,2,5.1|
4,3,0.1|
4,4,0.28|
4,5,3.2|
4,6,8.4|
4,7,9.1|
5,0,8.4|
5,1,6.3|
5,2,5.7|
5,3,2|
5,4,8.8|
5,5,8.1|
5,6,8.5|
5,7,9.3|
6,0,5.5|
6,1,1.2|
6,2,8.1|
6,3,6.9|
6,4,9.5|
6,5,9.9|
6,6,1.4|
6,7,6.9|
7,0,5.9|
7,1,5|
7,2,9.4|
7,3,0.88|
7,4,5.4|
7,5,2.5|
7,6,4.1|
7,7,0.38|
];
constraint_x2_y2=[
0,0,7.8|
0,1,0.8|
0,2,1.1|
0,3,5.6|
0,4,2.6|
0,5,0.28|
0,6,1.7|
0,7,1.6|
1,0,6.2|
1,1,9.8|
1,2,8.4|
1,3,7.2|
1,4,4|
1,5,9.5|
1,6,2.9|
1,7,6.5|
2,0,5.2|
2,1,0.73|
2,2,6|
2,3,7|
2,4,3.7|
2,5,4.3|
2,6,7.1|
2,7,3.4|
3,0,6.4|
3,1,1|
3,2,2.1|
3,3,7.1|
3,4,7.6|
3,5,4.8|
3,6,8.1|
3,7,7.4|
4,0,8.7|
4,1,4.5|
4,2,9|
4,3,3.6|
4,4,8.3|
4,5,4.7|
4,6,2.3|
4,7,4.1|
5,0,3.8|
5,1,9.4|
5,2,7.2|
5,3,9.9|
5,4,3.9|
5,5,1.3|
5,6,4.2|
5,7,4.9|
6,0,3.6|
6,1,4.1|
6,2,3.7|
6,3,7.9|
6,4,4.7|
6,5,6.6|
6,6,9.1|
6,7,9.8|
7,0,6|
7,1,4.6|
7,2,4.5|
7,3,2|
7,4,8.5|
7,5,6.3|
7,6,0.83|
7,7,4.8|
];
constraint_x3_y3=[
0,0,5.4|
0,1,0.064|
0,2,1.2|
0,3,5.6|
0,4,2.3|
0,5,3.9|
0,6,4.7|
0,7,8.3|
1,0,8|
1,1,9.7|
1,2,7.3|
1,3,3.9|
1,4,9.5|
1,5,7|
1,6,8.2|
1,7,2.6|
2,0,5.9|
2,1,7.8|
2,2,6.2|
2,3,4|
2,4,7.7|
2,5,4.3|
2,6,6.3|
2,7,5.5|
3,0,4|
3,1,6.6|
3,2,3.2|
3,3,9.8|
3,4,5.6|
3,5,3.2|
3,6,8.5|
3,7,5.5|
4,0,0.53|
4,1,5.6|
4,2,0.35|
4,3,8.4|
4,4,5.9|
4,5,1.2|
4,6,2.6|
4,7,9.6|
5,0,0.1|
5,1,2.5|
5,2,9.3|
5,3,9.2|
5,4,3.8|
5,5,8.6|
5,6,2.1|
5,7,9|
6,0,0.058|
6,1,0.15|
6,2,9.3|
6,3,1.5|
6,4,4.4|
6,5,9|
6,6,7|
6,7,2|
7,0,6.8|
7,1,9.8|
7,2,1.9|
7,3,5.7|
7,4,6.6|
7,5,3.9|
7,6,1.1|
7,7,8.8|
];
constraint_x4_y4=[
0,0,7.7|
0,1,5.5|
0,2,4.8|
0,3,3.9|
0,4,7.3|
0,5,7.3|
0,6,8.8|
0,7,1.2|
1,0,0.61|
1,1,6.6|
1,2,8.1|
1,3,4.2|
1,4,2.1|
1,5,5.3|
1,6,5.8|
1,7,7.7|
2,0,1.7|
2,1,0.53|
2,2,1.2|
2,3,7.2|
2,4,6.9|
2,5,5.4|
2,6,3.3|
2,7,3.4|
3,0,5.4|
3,1,3.4|
3,2,4.3|
3,3,8.3|
3,4,0.87|
3,5,7.8|
3,6,2.1|
3,7,0.42|
4,0,2.5|
4,1,7.3|
4,2,2.8|
4,3,0.75|
4,4,4.3|
4,5,2.9|
4,6,9.8|
4,7,7.2|
5,0,1.1|
5,1,6.3|
5,2,4.6|
5,3,7.5|
5,4,8|
5,5,8.8|
5,6,0.55|
5,7,7.3|
6,0,1|
6,1,4.4|
6,2,9|
6,3,9.9|
6,4,2.9|
6,5,1.4|
6,6,5.9|
6,7,8.1|
7,0,2.5|
7,1,1.6|
7,2,5|
7,3,2|
7,4,5.5|
7,5,0.056|
7,6,2.6|
7,7,9.2|
];
constraint_x5_y5=[
0,0,5.6|
0,1,8.4|
0,2,3.3|
0,3,6.5|
0,4,6.5|
0,5,2.7|
0,6,9.5|
0,7,3.5|
1,0,8.2|
1,1,1.8|
1,2,1.3|
1,3,8.6|
1,4,3.4|
1,5,9.8|
1,6,4.2|
1,7,2.6|
2,0,2.8|
2,1,7.9|
2,2,6.6|
2,3,4.9|
2,4,8.6|
2,5,8.3|
2,6,2.4|
2,7,2.5|
3,0,6.3|
3,1,9.8|
3,2,3.9|
3,3,3.7|
3,4,2.4|
3,5,1.5|
3,6,4.4|
3,7,9.7|
4,0,6.4|
4,1,2.2|
4,2,5.5|
4,3,0.55|
4,4,4|
4,5,1.6|
4,6,9.9|
4,7,2.6|
5,0,0.62|
5,1,4.8|
5,2,4.5|
5,3,2.4|
5,4,9.9|
5,5,0.4|
5,6,4.2|
5,7,7.1|
6,0,3.1|
6,1,6.1|
6,2,9.9|
6,3,8.8|
6,4,7.1|
6,5,5.3|
6,6,5.6|
6,7,0.13|
7,0,0.57|
7,1,2.7|
7,2,3.4|
7,3,6|
7,4,5.6|
7,5,2.6|
7,6,7.2|
7,7,6.3|
];
constraint_x6_y6=[
0,0,8.1|
0,1,0.2|
0,2,4.2|
0,3,3.5|
0,4,1.2|
0,5,6.2|
0,6,0.29|
0,7,2|
1,0,7.6|
1,1,7|
1,2,5.9|
1,3,3.4|
1,4,3.2|
1,5,6.2|
1,6,7.6|
1,7,3.5|
2,0,7|
2,1,5.6|
2,2,7.9|
2,3,0.3|
2,4,1.2|
2,5,6.9|
2,6,8|
2,7,0.054|
3,0,6.8|
3,1,5.1|
3,2,8.7|
3,3,1.9|
3,4,3.7|
3,5,4.6|
3,6,7.5|
3,7,9.2|
4,0,1.2|
4,1,5.2|
4,2,1.9|
4,3,4.2|
4,4,7.5|
4,5,6.3|
4,6,7.5|
4,7,3.4|
5,0,5|
5,1,8.3|
5,2,2.2|
5,3,7.5|
5,4,7.9|
5,5,3.5|
5,6,0.19|
5,7,9.4|
6,0,2.1|
6,1,5|
6,2,3.6|
6,3,4.1|
6,4,2|
6,5,5.2|
6,6,4.4|
6,7,2|
7,0,3.7|
7,1,7.1|
7,2,8.1|
7,3,0.045|
7,4,5.5|
7,5,3.9|
7,6,1.3|
7,7,8.5|
];
initial_distribution_y1=[0.087,0.11,0.16,0.12,0.16,0.15,0.14,0.07];
initial_distribution_y2=[0.12,0.089,0.062,0.057,0.088,0.22,0.15,0.2];
initial_distribution_y3=[0.16,0.022,0.23,0.13,0.2,0.011,0.12,0.14];
initial_distribution_y4=[0.051,0.22,0.23,0.12,0.062,0.076,0.21,0.03];
initial_distribution_y5=[0.12,0.12,0.18,0.026,0.12,0.13,0.21,0.084];
initial_distribution_y6=[0.1,0.091,0.01,0.19,0.12,0.12,0.18,0.19];
transition_y1=[
0.14,0.13,0.16,0.11,0.11,0.12,0.11,0.12|
0.0079,0.045,0.06,0.19,0.18,0.2,0.25,0.076|
0.13,0.19,0.18,0.046,0.13,0.038,0.26,0.016|
0.0075,0.15,0.16,0.16,0.22,0.073,0.068,0.17|
0.084,0.042,0.16,0.022,0.32,0.15,0.22,0.0057|
0.12,0.16,0.093,0.016,0.14,0.18,0.1,0.19|
0.17,0.12,0.069,0.13,0.011,0.2,0.16,0.13|
0.02,0.067,0.16,0.22,0.13,0.14,0.081,0.19|
];
transition_y2=[
0.15,0.12,0.19,0.2,0.063,0.028,0.14,0.1|
0.014,0.17,0.16,0.042,0.13,0.16,0.17,0.16|
0.19,0.1,0.097,0.076,0.086,0.22,0.076,0.15|
0.14,0.067,0.02,0.26,0.14,0.13,0.16,0.087|
0.2,0.23,0.047,0.095,0.038,0.053,0.22,0.12|
0.069,0.11,0.075,0.039,0.3,0.3,0.044,0.069|
0.02,0.13,0.13,0.069,0.17,0.046,0.15,0.29|
0.18,0.034,0.17,0.17,0.12,0.014,0.13,0.18|
];
transition_y3=[
0.071,0.13,0.096,0.21,0.21,0.083,0.022,0.18|
0.23,0.02,0.17,0.11,0.22,0.063,0.071,0.12|
0.096,0.025,0.087,0.076,0.16,0.034,0.2,0.32|
0.2,0.074,0.17,0.072,0.19,0.12,0.019,0.16|
0.15,0.12,0.026,0.26,0.1,0.13,0.15,0.057|
0.2,0.15,0.044,0.24,0.2,0.076,0.033,0.069|
0.22,0.077,0.11,0.056,0.22,0.05,0.16,0.093|
0.13,0.098,0.12,0.19,0.015,0.076,0.18,0.19|
];
transition_y4=[
0.15,0.1,0.071,0.15,0.14,0.14,0.15,0.098|
0.17,0.13,0.031,0.2,0.042,0.18,0.034,0.2|
0.0062,0.23,0.26,0.2,0.028,0.027,0.15,0.094|
0.033,0.2,0.2,0.044,0.11,0.29,0.028,0.097|
0.22,0.0041,0.1,0.22,0.052,0.16,0.21,0.03|
0.11,0.041,0.16,0.2,0.25,0.2,0.016,0.022|
0.18,0.021,0.039,0.19,0.17,0.058,0.17,0.17|
0.17,0.071,0.044,0.12,0.17,0.13,0.15,0.14|
];
transition_y5=[
0.12,0.22,0.092,0.11,0.14,0.12,0.19,0.018|
0.0052,0.14,0.15,0.17,0.049,0.15,0.21,0.12|
0.052,0.19,0.17,0.25,0.11,0.0045,0.21,0.021|
0.14,0.15,0.19,0.17,0.02,0.1,0.091,0.13|
0.18,0.062,0.097,0.12,0.096,0.12,0.12,0.2|
0.074,0.09,0.18,0.1,0.19,0.053,0.092,0.22|
0.017,0.024,0.068,0.078,0.078,0.22,0.22,0.29|
0.0075,0.19,0.25,0.14,0.071,0.21,0.071,0.061|
];
transition_y6=[
0.051,0.13,0.11,0.035,0.13,0.2,0.16,0.19|
0.063,0.16,0.055,0.13,0.14,0.16,0.16,0.13|
0.19,0.17,0.15,0.17,0.033,0.06,0.097,0.13|
0.005,0.28,0.027,0.3,0.03,0.0046,0.088,0.26|
0.13,0.046,0.25,0.12,0.11,0.18,0.003,0.17|
0.092,0.28,0.27,0.066,0.027,0.066,0.16,0.035|
0.17,0.034,0.044,0.15,0.16,0.17,0.17,0.093|
0.087,0.27,0.1,0.086,0.045,0.29,0.1,0.017|
];
